Clp0006I 0  Obj 0 Primal inf 999.9999 (1000) Dual inf 6868861 (250000)
Clp0006I 200  Obj -4167986 Primal inf 304177 (999)
Clp0006I 400  Obj -1428878 Primal inf 108822 (999)
Clp0006I 600  Obj -25827 Primal inf 12742 (990)
Clp0006I 687  Obj -25827 Primal inf 15004 (988)
Clp0006I 775  Obj -25827 Primal inf 36727 (987)
Clp0006I 858  Obj -25827 Primal inf 38860 (986)
Clp0006I 952  Obj -25827 Primal inf 43902 (983)
Clp0006I 1050  Obj -25827 Primal inf 38375 (984)
Clp0006I 1150  Obj -25827 Primal inf 39750 (984)
Clp0006I 1253  Obj -25827 Primal inf 40079 (980)
Clp0006I 1366  Obj -25827 Primal inf 42511 (982)
Clp0006I 1474  Obj -25827 Primal inf 44213 (980)
Clp0006I 1575  Obj -25827 Primal inf 35315 (982)
Clp0006I 1675  Obj -25827 Primal inf 35988 (977)
Clp0006I 1780  Obj -25827 Primal inf 32036 (977)
Clp0006I 1892  Obj -25827 Primal inf 35651 (975)
Clp0006I 2007  Obj -25827 Primal inf 28197 (971)
Clp0006I 2120  Obj -25827 Primal inf 30284 (970)
Clp0006I 2227  Obj -25079 Primal inf 25684 (971)
Clp0006I 2333  Obj -25079 Primal inf 33936 (968)
Clp0006I 2433  Obj -25079 Primal inf 34422 (970)
Clp0006I 2534  Obj -25079 Primal inf 31460 (972)
Clp0006I 2645  Obj -25079 Primal inf 24051 (974)
Clp0006I 2746  Obj -25079 Primal inf 37338 (967)
Clp0006I 2851  Obj -25079 Primal inf 41453 (958)
Clp0006I 2945  Obj -25079 Primal inf 37263 (960)
Clp0006I 3047  Obj -25079 Primal inf 60379 (959)
Clp0006I 3140  Obj -25079 Primal inf 46547 (952)
Clp0006I 3235  Obj -25079 Primal inf 45506 (956)
Clp0006I 3337  Obj -25079 Primal inf 48518 (955)
Clp0006I 3434  Obj -25079 Primal inf 44922 (949)
Clp0006I 3536  Obj -25079 Primal inf 20983 (947)
Clp0006I 3642  Obj -25079 Primal inf 35654 (946)
Clp0006I 3752  Obj -25079 Primal inf 45986 (944)
Clp0006I 3853  Obj -25079 Primal inf 36512 (946)
Clp0006I 3955  Obj -25079 Primal inf 34032 (938)
Clp0006I 4049  Obj -25079 Primal inf 46300 (939)
Clp0006I 4140  Obj -25079 Primal inf 33219 (937)
Clp0006I 4234  Obj -25079 Primal inf 29803 (934)
Clp0006I 4337  Obj -25079 Primal inf 32498 (942)
Clp0006I 4441  Obj -25079 Primal inf 37791 (938)
Clp0006I 4541  Obj -25079 Primal inf 32641 (936)
Clp0006I 4639  Obj -25079 Primal inf 32021 (932)
Clp0006I 4746  Obj -25079 Primal inf 39415 (930)
Clp0006I 4835  Obj -25079 Primal inf 23590 (923)
Clp0006I 4941  Obj -25079 Primal inf 24348 (928)
Clp0006I 5052  Obj -25079 Primal inf 41041 (916)
Clp0006I 5158  Obj -25079 Primal inf 32223 (912)
Clp0006I 5258  Obj -25079 Primal inf 39542 (908)
Clp0006I 5359  Obj -25079 Primal inf 40768 (904)
Clp0006I 5460  Obj -25079 Primal inf 19782 (911)
Clp0006I 5570  Obj -25079 Primal inf 20210 (895)
Clp0006I 5684  Obj -25079 Primal inf 35686 (893)
Clp0006I 5787  Obj -25079 Primal inf 24317 (893)
Clp0006I 5883  Obj -25079 Primal inf 29495 (894)
Clp0006I 5973  Obj -25079 Primal inf 23156 (890)
Clp0006I 6071  Obj -25079 Primal inf 14882 (880)
Clp0006I 6169  Obj -25079 Primal inf 25904 (865)
Clp0006I 6269  Obj -25079 Primal inf 14849 (868)
Clp0006I 6364  Obj -25079 Primal inf 27768 (870)
Clp0006I 6464  Obj -25079 Primal inf 31966 (860)
Clp0006I 6555  Obj -25079 Primal inf 30327 (851)
Clp0006I 6654  Obj -25079 Primal inf 30749 (854)
Clp0006I 6754  Obj -25079 Primal inf 21707 (846)
Clp0006I 6848  Obj -25079 Primal inf 27821 (841)
Clp0006I 6949  Obj -25079 Primal inf 18348 (832)
Clp0006I 7041  Obj -25079 Primal inf 21830 (816)
Clp0006I 7141  Obj -25079 Primal inf 17577 (817)
Clp0006I 7238  Obj -25079 Primal inf 15324 (802)
Clp0006I 7362  Obj -25000 Primal inf 10669 (799)
Clp0006I 7490  Obj -25000 Primal inf 11714 (798)
Clp0006I 7579  Obj -25000 Primal inf 8667.9999 (783)
Clp0006I 7684  Obj -25000 Primal inf 10099 (789)
Clp0006I 7780  Obj -25000 Primal inf 12393 (771)
Clp0006I 7874  Obj -25000 Primal inf 13347 (777)
Clp0006I 7962  Obj -25000 Primal inf 10025 (779)
Clp0006I 8073  Obj -25000 Primal inf 9775.9999 (779)
Clp0006I 8190  Obj -25000 Primal inf 11262 (771)
Clp0006I 8288  Obj -25000 Primal inf 11072 (774)
Clp0006I 8395  Obj -25000 Primal inf 10546 (766)
Clp0006I 8487  Obj -25000 Primal inf 10027 (759)
Clp0006I 8582  Obj -25000 Primal inf 7800.9999 (746)
Clp0006I 8680  Obj -25000 Primal inf 4228.9999 (717)
Clp0006I 8789  Obj -25000 Primal inf 4192.9999 (722)
Clp0006I 8897  Obj -25000 Primal inf 4198.9999 (706)
Clp0006I 8989  Obj -25000 Primal inf 7425.9999 (702)
Clp0006I 9076  Obj -25000 Primal inf 6739.9999 (697)
Clp0006I 9157  Obj -25000 Primal inf 5847.9999 (689)
Clp0006I 9242  Obj -25000 Primal inf 6850.9999 (683)
Clp0006I 9322  Obj -25000 Primal inf 6210.9999 (668)
Clp0006I 9412  Obj -25000 Primal inf 3194.9999 (670)
Clp0006I 9547  Obj -25000 Primal inf 3173.9999 (643)
Clp0006I 9655  Obj -25000 Primal inf 3179.9999 (628)
Clp0006I 9783  Obj -25000 Primal inf 2404.9999 (579)
Clp0006I 9903  Obj -25000 Primal inf 2415.9999 (557)
Clp0006I 9997  Obj -25000 Primal inf 2903.9999 (551)
Clp0006I 10077  Obj -25000 Primal inf 1918.9999 (543)
Clp0006I 10165  Obj -25000 Primal inf 2416.9999 (531)
Clp0006I 10257  Obj -25000 Primal inf 2156.9999 (527)
Clp0006I 10379  Obj -25000 Primal inf 1328 (487)
Clp0006I 10480  Obj -25000 Primal inf 1990 (481)
Clp0006I 10576  Obj -25000 Primal inf 1548 (494)
Clp0006I 10670  Obj -25000 Primal inf 1433 (463)
Clp0006I 10791  Obj -25000 Primal inf 713.99996 (417)
Clp0006I 10899  Obj -25000 Primal inf 1123 (339)
Clp0006I 11010  Obj -25000 Primal inf 882.99997 (283)
Clp0006I 11113  Obj -25000 Primal inf 494.99998 (185)
Clp0006I 11216  Obj -25000 Primal inf 473.99998 (178)
Clp0006I 11311  Obj -25000 Primal inf 794.99998 (165)
Clp0006I 11432  Obj -25000 Primal inf 208.99999 (124)
Clp0006I 11532  Obj -25000 Primal inf 256.99999 (135)
Clp0006I 11633  Obj -25000 Primal inf 74.999994 (64)
Clp0006I 11733  Obj -25000 Primal inf 153.99999 (78)
Clp0006I 11834  Obj -25000 Primal inf 106.99999 (57)
Clp0006I 11930  Obj -25000 Primal inf 13.999999 (13)
Clp0006I 12040  Obj -25000 Primal inf 75.999994 (60)
Clp0006I 12133  Obj -25000 Primal inf 2.9999997 (3)
Clp0006I 12160  Obj -25000
Clp0000I Optimal - objective value -25000
Clp0000I Optimal - objective value -25000
Node 0 depth 0 unsatisfied 0 sum 0 obj -25000 guess -25000 branching on -1
Clp0000I Optimal - objective value -25000
Cbc0004I Integer solution of -25000 found after 0 iterations and 0 nodes (27.14 seconds)
Cbc0001I Search completed - best objective -25000, took 0 iterations and 0 nodes (27.22 seconds)
Cbc0035I Maximum depth 0, 0 variables fixed on reduced cost
Clp0000I Optimal - objective value -25000
Clp0000I Optimal - objective value -25000
x_257 = 1
x_735 = 1
x_1310 = 1
x_1689 = 1
x_2030 = 1
x_2943 = 1
x_3293 = 1
x_3551 = 1
x_4444 = 1
x_4646 = 1
x_5369 = 1
x_5939 = 1
x_6412 = 1
x_6756 = 1
x_7262 = 1
x_7585 = 1
x_8393 = 1
x_8721 = 1
x_9382 = 1
x_9722 = 1
x_10346 = 1
x_10648 = 1
x_11359 = 1
x_11821 = 1
x_12160 = 1
x_12918 = 1
x_13156 = 1
x_13765 = 1
x_14269 = 1
x_14866 = 1
x_15184 = 1
x_15606 = 1
x_16354 = 1
x_16717 = 1
x_17290 = 1
x_17607 = 1
x_18362 = 1
x_18824 = 1
x_19476 = 1
x_19924 = 1
x_20388 = 1
x_20874 = 1
x_21056 = 1
x_21532 = 1
x_22092 = 1
x_22860 = 1
x_23307 = 1
x_23687 = 1
x_24170 = 1
x_24615 = 1
x_25226 = 1
x_25785 = 1
x_26116 = 1
x_26849 = 1
x_27130 = 1
x_27848 = 1
x_28219 = 1
x_28586 = 1
x_29155 = 1
x_29669 = 1
x_30024 = 1
x_30591 = 1
x_31368 = 1
x_31780 = 1
x_32482 = 1
x_32562 = 1
x_33399 = 1
x_33582 = 1
x_34014 = 1
x_34697 = 1
x_35243 = 1
x_35816 = 1
x_36207 = 1
x_36609 = 1
x_37216 = 1
x_37953 = 1
x_38461 = 1
x_38690 = 1
x_39421 = 1
x_39573 = 1
x_40276 = 1
x_40596 = 1
x_41317 = 1
x_41525 = 1
x_42364 = 1
x_42977 = 1
x_43114 = 1
x_43737 = 1
x_44188 = 1
x_44565 = 1
x_45194 = 1
x_45649 = 1
x_46230 = 1
x_46794 = 1
x_47135 = 1
x_47512 = 1
x_48088 = 1
x_48500 = 1
x_49253 = 1
x_49568 = 1
x_50239 = 1
x_50713 = 1
x_51177 = 1
x_51806 = 1
x_52137 = 1
x_52600 = 1
x_53397 = 1
x_53865 = 1
x_54060 = 1
x_54941 = 1
x_55209 = 1
x_55511 = 1
x_56385 = 1
x_56779 = 1
x_57173 = 1
x_57731 = 1
x_58163 = 1
x_58715 = 1
x_59351 = 1
x_59744 = 1
x_60352 = 1
x_60706 = 1
x_61143 = 1
x_61858 = 1
x_62282 = 1
x_62844 = 1
x_63071 = 1
x_63692 = 1
x_64298 = 1
x_64634 = 1
x_65454 = 1
x_65590 = 1
x_66120 = 1
x_66521 = 1
x_67499 = 1
x_67566 = 1
x_68295 = 1
x_68594 = 1
x_69087 = 1
x_69665 = 1
x_70029 = 1
x_70618 = 1
x_71052 = 1
x_71803 = 1
x_72332 = 1
x_72801 = 1
x_73224 = 1
x_73752 = 1
x_74063 = 1
x_74593 = 1
x_75278 = 1
x_75629 = 1
x_76185 = 1
x_76700 = 1
x_77381 = 1
x_77764 = 1
x_78153 = 1
x_78628 = 1
x_79245 = 1
x_79771 = 1
x_80050 = 1
x_80611 = 1
x_81133 = 1
x_81517 = 1
x_82166 = 1
x_82627 = 1
x_83299 = 1
x_83603 = 1
x_84398 = 1
x_84599 = 1
x_85161 = 1
x_85631 = 1
x_86039 = 1
x_86720 = 1
x_87228 = 1
x_87760 = 1
x_88070 = 1
x_88714 = 1
x_89205 = 1
x_89917 = 1
x_90132 = 1
x_90725 = 1
x_91124 = 1
x_91623 = 1
x_92274 = 1
x_92856 = 1
x_93049 = 1
x_93701 = 1
x_94010 = 1
x_94758 = 1
x_95064 = 1
x_95911 = 1
x_96004 = 1
x_96947 = 1
x_97097 = 1
x_97543 = 1
x_98212 = 1
x_98916 = 1
x_99028 = 1
x_99578 = 1
x_100350 = 1
x_100886 = 1
x_101250 = 1
x_101775 = 1
x_102005 = 1
x_102820 = 1
x_103327 = 1
x_103641 = 1
x_104098 = 1
x_104732 = 1
x_105074 = 1
x_105621 = 1
x_106174 = 1
x_106651 = 1
x_107255 = 1
x_107773 = 1
x_108338 = 1
x_108691 = 1
x_109145 = 1
x_109814 = 1
x_110394 = 1
x_110559 = 1
x_111002 = 1
x_111523 = 1
x_112164 = 1
x_112577 = 1
x_113154 = 1
x_113601 = 1
x_114147 = 1
x_114583 = 1
x_115008 = 1
x_115733 = 1
x_116079 = 1
x_116555 = 1
x_117404 = 1
x_117506 = 1
x_118300 = 1
x_118557 = 1
x_119263 = 1
x_119538 = 1
x_120113 = 1
x_120754 = 1
x_121211 = 1
x_121835 = 1
x_122016 = 1
x_122738 = 1
x_123268 = 1
x_123540 = 1
x_124387 = 1
x_124639 = 1
x_125407 = 1
x_125751 = 1
x_126095 = 1
x_126698 = 1
x_127061 = 1
x_127681 = 1
x_128047 = 1
x_128589 = 1
x_129150 = 1
x_129667 = 1
x_130353 = 1
x_130625 = 1
x_131440 = 1
x_131891 = 1
x_132402 = 1
x_132808 = 1
x_133199 = 1
x_133507 = 1
x_134331 = 1
x_134520 = 1
x_135034 = 1
x_135678 = 1
x_136046 = 1
x_136535 = 1
x_137261 = 1
x_137513 = 1
x_138236 = 1
x_138554 = 1
x_139234 = 1
x_139746 = 1
x_140152 = 1
x_140576 = 1
x_141067 = 1
x_141985 = 1
x_142186 = 1
x_142811 = 1
x_143172 = 1
x_143526 = 1
x_144248 = 1
x_144955 = 1
x_145176 = 1
x_145823 = 1
x_146202 = 1
x_146767 = 1
x_147015 = 1
x_147642 = 1
x_148112 = 1
x_148668 = 1
x_149159 = 1
x_149729 = 1
x_150333 = 1
x_150942 = 1
x_151119 = 1
x_151815 = 1
x_152037 = 1
x_152703 = 1
x_153179 = 1
x_153533 = 1
x_154105 = 1
x_154747 = 1
x_155270 = 1
x_155933 = 1
x_156122 = 1
x_156870 = 1
x_157242 = 1
x_157727 = 1
x_158144 = 1
x_158558 = 1
x_159102 = 1
x_159569 = 1
x_160009 = 1
x_160759 = 1
x_161288 = 1
x_161581 = 1
x_162196 = 1
x_162951 = 1
x_163241 = 1
x_163822 = 1
x_164302 = 1
x_164638 = 1
x_165334 = 1
x_165657 = 1
x_166462 = 1
x_166604 = 1
x_167045 = 1
x_167783 = 1
x_168319 = 1
x_168958 = 1
x_169208 = 1
x_169527 = 1
x_170108 = 1
x_170575 = 1
x_171218 = 1
x_171935 = 1
x_172031 = 1
x_172695 = 1
x_173140 = 1
x_173781 = 1
x_174339 = 1
x_174805 = 1
x_175018 = 1
x_175987 = 1
x_176383 = 1
x_176693 = 1
x_177484 = 1
x_177920 = 1
x_178415 = 1
x_178542 = 1
x_179277 = 1
x_179909 = 1
x_180450 = 1
x_180884 = 1
x_181377 = 1
x_181925 = 1
x_182286 = 1
x_182544 = 1
x_183289 = 1
x_183871 = 1
x_184003 = 1
x_184791 = 1
x_185405 = 1
x_185965 = 1
x_186036 = 1
x_186723 = 1
x_187292 = 1
x_187787 = 1
x_188110 = 1
x_188772 = 1
x_189498 = 1
x_189682 = 1
x_190373 = 1
x_190829 = 1
x_191080 = 1
x_191675 = 1
x_192456 = 1
x_192937 = 1
x_193337 = 1
x_193847 = 1
x_194240 = 1
x_194927 = 1
x_195136 = 1
x_195945 = 1
x_196431 = 1
x_196671 = 1
x_197408 = 1
x_197903 = 1
x_198204 = 1
x_198966 = 1
x_199357 = 1
x_199658 = 1
x_200162 = 1
x_200963 = 1
x_201001 = 1
x_201988 = 1
x_202266 = 1
x_202617 = 1
x_203438 = 1
x_203553 = 1
x_204330 = 1
x_204978 = 1
x_205372 = 1
x_205892 = 1
x_206210 = 1
x_206932 = 1
x_207183 = 1
x_207572 = 1
x_208448 = 1
x_208974 = 1
x_209464 = 1
x_209680 = 1
x_210284 = 1
x_210749 = 1
x_211309 = 1
x_211952 = 1
x_212471 = 1
x_212972 = 1
x_213336 = 1
x_213584 = 1
x_214492 = 1
x_214548 = 1
x_215304 = 1
x_215797 = 1
x_216446 = 1
x_216875 = 1
x_217457 = 1
x_217997 = 1
x_218473 = 1
x_218979 = 1
x_219390 = 1
x_219519 = 1
x_220406 = 1
x_220981 = 1
x_221410 = 1
x_221900 = 1
x_222483 = 1
x_222936 = 1
x_223345 = 1
x_223913 = 1
x_224318 = 1
x_224996 = 1
x_225296 = 1
x_225825 = 1
x_226126 = 1
x_226968 = 1
x_227401 = 1
x_227826 = 1
x_228493 = 1
x_228855 = 1
x_229363 = 1
x_229895 = 1
x_230328 = 1
x_230975 = 1
x_231414 = 1
x_231959 = 1
x_232429 = 1
x_232861 = 1
x_233389 = 1
x_233842 = 1
x_234495 = 1
x_234841 = 1
x_235380 = 1
x_235949 = 1
x_236312 = 1
x_236923 = 1
x_237489 = 1
x_237980 = 1
x_238426 = 1
x_238934 = 1
x_239490 = 1
x_239930 = 1
x_240340 = 1
x_240967 = 1
x_241367 = 1
x_241522 = 1
x_242041 = 1
x_242994 = 1
x_243378 = 1
x_243986 = 1
x_244376 = 1
x_244991 = 1
x_245460 = 1
x_245843 = 1
x_246419 = 1
x_246879 = 1
x_247428 = 1
x_247969 = 1
x_248470 = 1
x_248922 = 1
x_249313 = 1
x_249896 = 1
real 0m28,522s user 0m28,275s sys 0m0,216s
